c random clauses
p cnf 10 32
-10 -9 -8 -5 -4 -3 -1 2 0
-10 -9 -8 -4 1 5 6 7 0
-10 -9 -8 -3 -1 4 5 6 0
-10 -9 -7 -6 -3 -1 2 4 0
-10 -8 -7 -6 -4 1 2 5 0
-10 -8 -7 -6 -4 1 2 9 0
-10 -8 -7 -6 -2 -1 5 9 0
-10 -8 -6 -4 -2 1 7 9 0
-10 -7 -6 -5 -3 4 8 9 0
-10 -7 -5 -3 -2 -1 6 8 0
-10 -7 -5 -2 1 3 8 9 0
-10 -7 -4 -2 1 5 6 8 0
-10 -7 2 3 5 6 8 9 0
-10 -6 -3 1 2 4 5 8 0
-10 -3 1 2 5 6 8 9 0
-9 -8 -6 -5 -3 -2 1 10 0
-9 -8 -4 -3 -2 1 6 7 0
-9 -8 -2 1 4 5 6 7 0
-9 -7 -5 -4 3 6 8 10 0
-9 -6 -5 -4 -3 1 7 10 0
-9 -6 -5 -1 2 3 4 8 0
-9 -6 -3 1 2 5 8 10 0
-9 -3 -1 2 4 5 6 7 0
-9 1 2 3 4 5 8 10 0
-8 -7 -6 -3 1 4 9 10 0
-8 -7 -4 -3 -1 5 6 9 0
-8 -6 -5 -3 1 2 7 9 0
-7 -6 -3 2 4 5 8 9 0
-7 -6 1 2 4 5 8 9 0
-7 -5 -3 1 2 4 8 9 0
-6 -1 2 3 5 7 8 10 0
-5 -4 -3 1 2 7 8 9 0
